n = 50;
C = 265;
w = [406,334,262,31,384,180,3,351,2,63,455,117,233,261,111,172,229,161,30,444,176,481,498,394,159,341,476,225,315,340,215,210,426,135,172,242,66,430,364,210,146,388,491,370,232,6,359,258,469,472];
p = [2040,1680,1320,165,1930,910,25,1765,20,325,2285,595,1175,1315,565,870,1155,815,160,2230,890,2415,2500,1980,805,1715,2390,1135,1585,1710,1085,1060,2140,685,870,1220,340,2160,1830,1060,740,1950,2465,1860,1170,40,1805,1300,2355,2370];
